(declare-fun var0 () String)
(assert (str.in.re var0 (re.++ (re.* (re.union (str.to.re "XX") (str.to.re "YYY"))) (re.++ (re.* (re.+ (str.to.re "W"))) (re.++ (re.union (re.union (str.to.re "T") (str.to.re "U")) (re.+ (str.to.re "VVV"))) (re.++ (re.union (re.+ (str.to.re "RR")) (re.* (str.to.re "S"))) (re.++ (re.+ (re.* (str.to.re "QQQ"))) (re.++ (re.* (re.+ (str.to.re "PPP"))) (re.++ (re.union (re.+ (str.to.re "NN")) (re.* (str.to.re "O"))) (re.++ (re.* (re.* (str.to.re "MM"))) (re.++ (re.* (re.+ (str.to.re "LL"))) (re.++ (re.* (re.+ (str.to.re "K"))) (re.++ (re.* (re.+ (str.to.re "J"))) (re.++ (re.union (re.* (str.to.re "G")) (re.union (str.to.re "HH") (str.to.re "III"))) (re.++ (re.* (re.+ (str.to.re "FF"))) (re.++ (re.* (re.* (str.to.re "E"))) (re.++ (re.* (re.* (str.to.re "DDD"))) (re.++ (re.union (re.+ (str.to.re "A")) (re.union (str.to.re "B") (str.to.re "CC"))) (re.++ (re.union (re.* (str.to.re "yyy")) (re.+ (str.to.re "z"))) (re.++ (re.union (re.+ (str.to.re "w")) (re.+ (str.to.re "xx"))) (re.++ (re.union (re.* (str.to.re "tt")) (re.union (str.to.re "uuu") (str.to.re "v"))) (re.++ (re.+ (re.union (str.to.re "rrr") (str.to.re "ss"))) (re.++ (re.* (re.union (str.to.re "pp") (str.to.re "qq"))) (re.++ (re.* (re.+ (str.to.re "o"))) (re.++ (re.union (re.+ (str.to.re "m")) (re.+ (str.to.re "nn"))) (re.++ (re.+ (re.+ (str.to.re "ll"))) (re.++ (re.* (re.* (str.to.re "k"))) (re.++ (re.* (re.* (str.to.re "j"))) (re.++ (re.union (re.+ (str.to.re "hhh")) (re.+ (str.to.re "iii"))) (re.++ (re.+ (re.union (str.to.re "fff") (str.to.re "ggg"))) (re.++ (re.* (re.* (str.to.re "eee"))) (re.++ (re.union (re.+ (str.to.re "bbb")) (re.union (str.to.re "cc") (str.to.re "d"))) (re.++ (re.* (re.+ (str.to.re "a"))) (re.++ (re.union (re.union (str.to.re "77") (str.to.re "888")) (re.* (str.to.re "9"))) (re.++ (re.+ (re.union (str.to.re "55") (str.to.re "66"))) (re.++ (re.+ (re.union (str.to.re "3") (str.to.re "444"))) (re.++ (re.+ (re.* (str.to.re "2"))) (re.+ (re.union (str.to.re "0") (str.to.re "11"))))))))))))))))))))))))))))))))))))))))
(check-sat)